136 95 119 199 90 105 85 25 33 37 34 68 161 168 14 185 52 166 73 7 83 17 4 175 178 2 92 106 32 142 13 45 79 78 145 137 88 59 65 118 1 112 64 179 76 131 12 164 72 93 162 177 11 149 81 151 133 114 67 125 193 103 158 172 187 35 46 97 127 197 6 100 108 89 42 26 194 98 195 104 160 101 116 87 182 58 22 122 134 91 39 30 123 146 143 94 24 188 62 53 80 180 107 84 50 66 86 96 40 9 20 77 171 156 138 129 170 99 173 21 124 3 110 55 140 36 63 181 69 153 43 27 157 184 5 152 113 155 54 169 186 111 117 29 189 41 141 109 70 191 38 15 163 165 0 8 130 174 148 19 51 49 61 150 190 31 82 126 167 176 28 16 44 102 47 23 56 71 74 115 154 159 128 10 60 144 135 120 139 183 121 147 196 48 192 75 57 198 132 18 

